(declare-const param0 Int)
(declare-const param1 Int)
(declare-const __cost Int)
(assert (exists
         ((j?1 Int) (|j'?2| Int) (|__cost'?3| Int) (|i___1'?4| Int) (K?5 Int)
            (|__cost'?6| Int) (|i___0'?7| Int) (K?8 Int) (|__cost'?9| Int)
            (|i'?10| Int) (K?11 Int))
         (and (<= (- param0) 0) (<= (- param1) 0)
                (or (not (and (<= (- K?11) 0) (<= K?11 0)))
                      (= (+ |i'?10| (- K?11)) 0))
                (or (not (<= (+ (- K?11) 1) 0)) (= (+ |i'?10| (- K?11)) 0))
                (or (not (and (<= (- K?11) 0) (<= K?11 0)))
                      (= (+ |__cost'?9| (- K?11)) 0))
                (or (not (<= (+ (- K?11) 1) 0))
                      (= (+ |__cost'?9| (- K?11)) 0))
                (or (and (= K?11 0) (= (- |i'?10|) 0) (= (- |__cost'?9|) 0))
                      (and (<= (+ (- K?11) 1) 0) (<= (+ (- param0) 1) 0)
                             (= (+ (- |__cost'?9|) |i'?10|) 0)
                             (<= (+ |__cost'?9| (- param0)) 0)
                             (<= (+ (- |__cost'?9|) 1) 0))) (<= (- K?11) 0)
                (<= (- |__cost'?9|) 0) (<= (- |i'?10|) 0) (<= (- param0) 0)
                (= (+ |__cost'?9| (- |i'?10|)) 0)
                (<= (+ (- |i'?10|) param0) 0)
                (or (not (<= (- K?8) 0)) (= (+ |i___0'?7| (- K?8)) 0))
                (or (not (<= (- K?8) 0))
                      (= (+ |__cost'?6| (- K?8) (- |__cost'?9|)) 0))
                (or (and (= K?8 0) (= (- |i___0'?7|) 0)
                           (= (+ (- |__cost'?6|) |__cost'?9|) 0))
                      (and (<= (+ (- K?8) 1) 0) (<= (+ (- param1) 1) 0)
                             (<= (- |__cost'?9|) 0)
                             (<= (+ |i___0'?7| (- param1)) 0)
                             (<= (+ (- |__cost'?6|) 1) 0)
                             (<= (+ (- |i___0'?7|) 1) 0))) (<= (- K?8) 0)
                (<= (- |i___0'?7|) 0) (<= (- |__cost'?6|) 0)
                (<= (- param1) 0) (<= (+ (- |i___0'?7|) param1) 0)
                (or (not (<= (- K?5) 0)) (= (+ |i___1'?4| (- K?5) -1) 0))
                (or (not (<= (- K?5) 0))
                      (<= (+ |__cost'?3| (- |__cost'?6|) (- (* K?5 param1))) 0))
                (or (not (<= (- K?5) 0))
                      (<= (+ (- |__cost'?3|) (- K?5) |__cost'?6|
                               (* K?5 param1)) 0))
                (or (not (<= (- K?5) 0))
                      (<= (+ (- |__cost'?3|) |__cost'?6|) 0))
                (or (and (= K?5 0) (= (+ (- |j'?2|) j?1) 0)
                           (= (+ (- |i___1'?4|) 1) 0)
                           (= (+ (- |__cost'?3|) |__cost'?6|) 0))
                      (and (<= (+ (- K?5) 1) 0) (<= (+ (- param0) 2) 0)
                             (<= (- |__cost'?6|) 0) (<= (- param1) 0)
                             (<= (+ |i___1'?4| (- param0)) 0)
                             (<= (+ |j'?2| (- |__cost'?3|) -1) 0)
                             (<= (+ |j'?2| (- param1) -1) 0)
                             (<= (+ (- |j'?2|) param1) 0)
                             (<= (+ (- |j'?2|) 1) 0)
                             (<= (+ (- |i___1'?4|) 2) 0))) (<= (- K?5) 0)
                (< (- |i___1'?4|) 0) (<= (- |__cost'?3|) 0) (<= (- param1) 0)
                (<= (- param0) 0) (<= (+ (- |i___1'?4|) param0) 0)
                (= (+ __cost (- |__cost'?3|)) 0))))
(check-sat)
